data/lp_files/pEFS/72_9.lp
\ Model foo
\ LP format - for model browsing. Use MPS format to capture full model detail.
Minimize
  z
Subject To
 allocateEach[1]: x[1,1] + x[2,1] + x[3,1] + x[4,1] = 1
 allocateEach[2]: x[1,2] + x[2,2] + x[3,2] + x[4,2] = 1
 allocateEach[3]: x[1,3] + x[2,3] + x[3,3] + x[4,3] = 1
 allocateEach[4]: x[1,4] + x[2,4] + x[3,4] + x[4,4] = 1
 allocateEach[5]: x[1,5] + x[2,5] + x[3,5] + x[4,5] = 1
 allocateEach[6]: x[1,6] + x[2,6] + x[3,6] + x[4,6] = 1
 allocateEach[7]: x[1,7] + x[2,7] + x[3,7] + x[4,7] = 1
 allocateEach[8]: x[1,8] + x[2,8] + x[3,8] + x[4,8] = 1
 allocateEach[9]: x[1,9] + x[2,9] + x[3,9] + x[4,9] = 1
 allocateEach[10]: x[1,10] + x[2,10] + x[3,10] + x[4,10] = 1
 allocateEach[11]: x[1,11] + x[2,11] + x[3,11] + x[4,11] = 1
 allocateEach[12]: x[1,12] + x[2,12] + x[3,12] + x[4,12] = 1
 allocateAllCash: cashProportion[1] + cashProportion[2] + cashProportion[3]
   + cashProportion[4] = 1
 findWorstP[1,2]: z + 0.1200509015822709 cashProportion[1]
   - 0.1200509015822709 cashProportion[2] + 0.1000384162885063 x[1,1]
   + 0.053074503589522 x[1,2] + 0.1022713630579365 x[1,3]
   + 0.0476121875675286 x[1,4] + 0.0932195250786333 x[1,5]
   + 0.0286081298470552 x[1,6] + 0.0953204158563231 x[1,7]
   + 0.0487526711325602 x[1,8] + 0.1065571802444236 x[1,9]
   + 0.0304208984609474 x[1,10] + 0.0749237676774953 x[1,11]
   + 0.0991500396167975 x[1,12] - 0.1000384162885063 x[2,1]
   - 0.053074503589522 x[2,2] - 0.1022713630579365 x[2,3]
   - 0.0476121875675286 x[2,4] - 0.0932195250786333 x[2,5]
   - 0.0286081298470552 x[2,6] - 0.0953204158563231 x[2,7]
   - 0.0487526711325602 x[2,8] - 0.1065571802444236 x[2,9]
   - 0.0304208984609474 x[2,10] - 0.0749237676774953 x[2,11]
   - 0.0991500396167975 x[2,12] >= 0
 findWorstP[1,3]: z + 0.1200509015822709 cashProportion[1]
   - 0.1200509015822709 cashProportion[3] + 0.1000384162885063 x[1,1]
   + 0.053074503589522 x[1,2] + 0.1022713630579365 x[1,3]
   + 0.0476121875675286 x[1,4] + 0.0932195250786333 x[1,5]
   + 0.0286081298470552 x[1,6] + 0.0953204158563231 x[1,7]
   + 0.0487526711325602 x[1,8] + 0.1065571802444236 x[1,9]
   + 0.0304208984609474 x[1,10] + 0.0749237676774953 x[1,11]
   + 0.0991500396167975 x[1,12] - 0.1000384162885063 x[3,1]
   - 0.053074503589522 x[3,2] - 0.1022713630579365 x[3,3]
   - 0.0476121875675286 x[3,4] - 0.0932195250786333 x[3,5]
   - 0.0286081298470552 x[3,6] - 0.0953204158563231 x[3,7]
   - 0.0487526711325602 x[3,8] - 0.1065571802444236 x[3,9]
   - 0.0304208984609474 x[3,10] - 0.0749237676774953 x[3,11]
   - 0.0991500396167975 x[3,12] >= 0
 findWorstP[1,4]: z + 0.1200509015822709 cashProportion[1]
   - 0.1200509015822709 cashProportion[4] + 0.1000384162885063 x[1,1]
   + 0.053074503589522 x[1,2] + 0.1022713630579365 x[1,3]
   + 0.0476121875675286 x[1,4] + 0.0932195250786333 x[1,5]
   + 0.0286081298470552 x[1,6] + 0.0953204158563231 x[1,7]
   + 0.0487526711325602 x[1,8] + 0.1065571802444236 x[1,9]
   + 0.0304208984609474 x[1,10] + 0.0749237676774953 x[1,11]
   + 0.0991500396167975 x[1,12] - 0.1000384162885063 x[4,1]
   - 0.053074503589522 x[4,2] - 0.1022713630579365 x[4,3]
   - 0.0476121875675286 x[4,4] - 0.0932195250786333 x[4,5]
   - 0.0286081298470552 x[4,6] - 0.0953204158563231 x[4,7]
   - 0.0487526711325602 x[4,8] - 0.1065571802444236 x[4,9]
   - 0.0304208984609474 x[4,10] - 0.0749237676774953 x[4,11]
   - 0.0991500396167975 x[4,12] >= 0
 findWorstP[2,1]: z - 0.1541806071632311 cashProportion[1]
   + 0.1541806071632311 cashProportion[2] - 0.0311290645862563 x[1,1]
   - 0.1167763918654312 x[1,2] - 0.0803126782713271 x[1,3]
   - 0.1472424798408856 x[1,4] - 0.1049661573567277 x[1,5]
   - 0.0828258221680877 x[1,6] - 0.0447894663809186 x[1,7]
   - 0.0129974251838604 x[1,8] - 0.0185941812238857 x[1,9]
   - 0.0839821767218119 x[1,10] - 0.1052899366317705 x[1,11]
   - 0.0169136126058064 x[1,12] + 0.0311290645862563 x[2,1]
   + 0.1167763918654312 x[2,2] + 0.0803126782713271 x[2,3]
   + 0.1472424798408856 x[2,4] + 0.1049661573567277 x[2,5]
   + 0.0828258221680877 x[2,6] + 0.0447894663809186 x[2,7]
   + 0.0129974251838604 x[2,8] + 0.0185941812238857 x[2,9]
   + 0.0839821767218119 x[2,10] + 0.1052899366317705 x[2,11]
   + 0.0169136126058064 x[2,12] >= 0
 findWorstP[2,3]: z + 0.1541806071632311 cashProportion[2]
   - 0.1541806071632311 cashProportion[3] + 0.0311290645862563 x[2,1]
   + 0.1167763918654312 x[2,2] + 0.0803126782713271 x[2,3]
   + 0.1472424798408856 x[2,4] + 0.1049661573567277 x[2,5]
   + 0.0828258221680877 x[2,6] + 0.0447894663809186 x[2,7]
   + 0.0129974251838604 x[2,8] + 0.0185941812238857 x[2,9]
   + 0.0839821767218119 x[2,10] + 0.1052899366317705 x[2,11]
   + 0.0169136126058064 x[2,12] - 0.0311290645862563 x[3,1]
   - 0.1167763918654312 x[3,2] - 0.0803126782713271 x[3,3]
   - 0.1472424798408856 x[3,4] - 0.1049661573567277 x[3,5]
   - 0.0828258221680877 x[3,6] - 0.0447894663809186 x[3,7]
   - 0.0129974251838604 x[3,8] - 0.0185941812238857 x[3,9]
   - 0.0839821767218119 x[3,10] - 0.1052899366317705 x[3,11]
   - 0.0169136126058064 x[3,12] >= 0
 findWorstP[2,4]: z + 0.1541806071632311 cashProportion[2]
   - 0.1541806071632311 cashProportion[4] + 0.0311290645862563 x[2,1]
   + 0.1167763918654312 x[2,2] + 0.0803126782713271 x[2,3]
   + 0.1472424798408856 x[2,4] + 0.1049661573567277 x[2,5]
   + 0.0828258221680877 x[2,6] + 0.0447894663809186 x[2,7]
   + 0.0129974251838604 x[2,8] + 0.0185941812238857 x[2,9]
   + 0.0839821767218119 x[2,10] + 0.1052899366317705 x[2,11]
   + 0.0169136126058064 x[2,12] - 0.0311290645862563 x[4,1]
   - 0.1167763918654312 x[4,2] - 0.0803126782713271 x[4,3]
   - 0.1472424798408856 x[4,4] - 0.1049661573567277 x[4,5]
   - 0.0828258221680877 x[4,6] - 0.0447894663809186 x[4,7]
   - 0.0129974251838604 x[4,8] - 0.0185941812238857 x[4,9]
   - 0.0839821767218119 x[4,10] - 0.1052899366317705 x[4,11]
   - 0.0169136126058064 x[4,12] >= 0
 findWorstP[3,1]: z - 0.1733643077563191 cashProportion[1]
   + 0.1733643077563191 cashProportion[3] - 0.0270448320099858 x[1,1]
   - 0.0571408758364828 x[1,2] - 0.0359037481363337 x[1,3]
   - 0.0847578100620644 x[1,4] - 0.0782566485212025 x[1,5]
   - 0.1060816199160917 x[1,6] - 0.0454214486321556 x[1,7]
   - 0.0514718629728511 x[1,8] - 0.034430151520405 x[1,9]
   - 0.1700183766166222 x[1,10] - 0.0436357962622655 x[1,11]
   - 0.0924725217572206 x[1,12] + 0.0270448320099858 x[3,1]
   + 0.0571408758364828 x[3,2] + 0.0359037481363337 x[3,3]
   + 0.0847578100620644 x[3,4] + 0.0782566485212025 x[3,5]
   + 0.1060816199160917 x[3,6] + 0.0454214486321556 x[3,7]
   + 0.0514718629728511 x[3,8] + 0.034430151520405 x[3,9]
   + 0.1700183766166222 x[3,10] + 0.0436357962622655 x[3,11]
   + 0.0924725217572206 x[3,12] >= 0
 findWorstP[3,2]: z - 0.1733643077563191 cashProportion[2]
   + 0.1733643077563191 cashProportion[3] - 0.0270448320099858 x[2,1]
   - 0.0571408758364828 x[2,2] - 0.0359037481363337 x[2,3]
   - 0.0847578100620644 x[2,4] - 0.0782566485212025 x[2,5]
   - 0.1060816199160917 x[2,6] - 0.0454214486321556 x[2,7]
   - 0.0514718629728511 x[2,8] - 0.034430151520405 x[2,9]
   - 0.1700183766166222 x[2,10] - 0.0436357962622655 x[2,11]
   - 0.0924725217572206 x[2,12] + 0.0270448320099858 x[3,1]
   + 0.0571408758364828 x[3,2] + 0.0359037481363337 x[3,3]
   + 0.0847578100620644 x[3,4] + 0.0782566485212025 x[3,5]
   + 0.1060816199160917 x[3,6] + 0.0454214486321556 x[3,7]
   + 0.0514718629728511 x[3,8] + 0.034430151520405 x[3,9]
   + 0.1700183766166222 x[3,10] + 0.0436357962622655 x[3,11]
   + 0.0924725217572206 x[3,12] >= 0
 findWorstP[3,4]: z + 0.1733643077563191 cashProportion[3]
   - 0.1733643077563191 cashProportion[4] + 0.0270448320099858 x[3,1]
   + 0.0571408758364828 x[3,2] + 0.0359037481363337 x[3,3]
   + 0.0847578100620644 x[3,4] + 0.0782566485212025 x[3,5]
   + 0.1060816199160917 x[3,6] + 0.0454214486321556 x[3,7]
   + 0.0514718629728511 x[3,8] + 0.034430151520405 x[3,9]
   + 0.1700183766166222 x[3,10] + 0.0436357962622655 x[3,11]
   + 0.0924725217572206 x[3,12] - 0.0270448320099858 x[4,1]
   - 0.0571408758364828 x[4,2] - 0.0359037481363337 x[4,3]
   - 0.0847578100620644 x[4,4] - 0.0782566485212025 x[4,5]
   - 0.1060816199160917 x[4,6] - 0.0454214486321556 x[4,7]
   - 0.0514718629728511 x[4,8] - 0.034430151520405 x[4,9]
   - 0.1700183766166222 x[4,10] - 0.0436357962622655 x[4,11]
   - 0.0924725217572206 x[4,12] >= 0
 findWorstP[4,1]: z - 0.1344592050771796 cashProportion[1]
   + 0.1344592050771796 cashProportion[4] - 0.1238369278760824 x[1,1]
   - 0.1252084117678696 x[1,2] - 0.0661135911364492 x[1,3]
   - 0.1326708976496531 x[1,4] - 0.0145753778303663 x[1,5]
   - 0.0133517990641639 x[1,6] - 0.0453934276340558 x[1,7]
   - 0.0744903996127575 x[1,8] - 0.0954256978432743 x[1,9]
   - 0.0548055719894584 x[1,10] - 0.0043430323239929 x[1,11]
   - 0.1153256601946969 x[1,12] + 0.1238369278760824 x[4,1]
   + 0.1252084117678696 x[4,2] + 0.0661135911364492 x[4,3]
   + 0.1326708976496531 x[4,4] + 0.0145753778303663 x[4,5]
   + 0.0133517990641639 x[4,6] + 0.0453934276340558 x[4,7]
   + 0.0744903996127575 x[4,8] + 0.0954256978432743 x[4,9]
   + 0.0548055719894584 x[4,10] + 0.0043430323239929 x[4,11]
   + 0.1153256601946969 x[4,12] >= 0
 findWorstP[4,2]: z - 0.1344592050771796 cashProportion[2]
   + 0.1344592050771796 cashProportion[4] - 0.1238369278760824 x[2,1]
   - 0.1252084117678696 x[2,2] - 0.0661135911364492 x[2,3]
   - 0.1326708976496531 x[2,4] - 0.0145753778303663 x[2,5]
   - 0.0133517990641639 x[2,6] - 0.0453934276340558 x[2,7]
   - 0.0744903996127575 x[2,8] - 0.0954256978432743 x[2,9]
   - 0.0548055719894584 x[2,10] - 0.0043430323239929 x[2,11]
   - 0.1153256601946969 x[2,12] + 0.1238369278760824 x[4,1]
   + 0.1252084117678696 x[4,2] + 0.0661135911364492 x[4,3]
   + 0.1326708976496531 x[4,4] + 0.0145753778303663 x[4,5]
   + 0.0133517990641639 x[4,6] + 0.0453934276340558 x[4,7]
   + 0.0744903996127575 x[4,8] + 0.0954256978432743 x[4,9]
   + 0.0548055719894584 x[4,10] + 0.0043430323239929 x[4,11]
   + 0.1153256601946969 x[4,12] >= 0
 findWorstP[4,3]: z - 0.1344592050771796 cashProportion[3]
   + 0.1344592050771796 cashProportion[4] - 0.1238369278760824 x[3,1]
   - 0.1252084117678696 x[3,2] - 0.0661135911364492 x[3,3]
   - 0.1326708976496531 x[3,4] - 0.0145753778303663 x[3,5]
   - 0.0133517990641639 x[3,6] - 0.0453934276340558 x[3,7]
   - 0.0744903996127575 x[3,8] - 0.0954256978432743 x[3,9]
   - 0.0548055719894584 x[3,10] - 0.0043430323239929 x[3,11]
   - 0.1153256601946969 x[3,12] + 0.1238369278760824 x[4,1]
   + 0.1252084117678696 x[4,2] + 0.0661135911364492 x[4,3]
   + 0.1326708976496531 x[4,4] + 0.0145753778303663 x[4,5]
   + 0.0133517990641639 x[4,6] + 0.0453934276340558 x[4,7]
   + 0.0744903996127575 x[4,8] + 0.0954256978432743 x[4,9]
   + 0.0548055719894584 x[4,10] + 0.0043430323239929 x[4,11]
   + 0.1153256601946969 x[4,12] >= 0
Bounds
 z <= 1
 -infinity <= cashProportion[1] <= 1
 -infinity <= cashProportion[2] <= 1
 -infinity <= cashProportion[3] <= 1
 -infinity <= cashProportion[4] <= 1
Binaries
 x[1,1] x[1,2] x[1,3] x[1,4] x[1,5] x[1,6] x[1,7] x[1,8] x[1,9] x[1,10]
 x[1,11] x[1,12] x[2,1] x[2,2] x[2,3] x[2,4] x[2,5] x[2,6] x[2,7] x[2,8]
 x[2,9] x[2,10] x[2,11] x[2,12] x[3,1] x[3,2] x[3,3] x[3,4] x[3,5] x[3,6]
 x[3,7] x[3,8] x[3,9] x[3,10] x[3,11] x[3,12] x[4,1] x[4,2] x[4,3] x[4,4]
 x[4,5] x[4,6] x[4,7] x[4,8] x[4,9] x[4,10] x[4,11] x[4,12]
End
