data/mps_files/pEFS/72_9.mps
NAME foo
ROWS
 N  OBJ
 E  allocateEach[1]
 E  allocateEach[2]
 E  allocateEach[3]
 E  allocateEach[4]
 E  allocateEach[5]
 E  allocateEach[6]
 E  allocateEach[7]
 E  allocateEach[8]
 E  allocateEach[9]
 E  allocateEach[10]
 E  allocateEach[11]
 E  allocateEach[12]
 E  allocateAllCash
 G  findWorstP[1,2]
 G  findWorstP[1,3]
 G  findWorstP[1,4]
 G  findWorstP[2,1]
 G  findWorstP[2,3]
 G  findWorstP[2,4]
 G  findWorstP[3,1]
 G  findWorstP[3,2]
 G  findWorstP[3,4]
 G  findWorstP[4,1]
 G  findWorstP[4,2]
 G  findWorstP[4,3]
COLUMNS
    z         OBJ       1
    z         findWorstP[1,2]  1
    z         findWorstP[1,3]  1
    z         findWorstP[1,4]  1
    z         findWorstP[2,1]  1
    z         findWorstP[2,3]  1
    z         findWorstP[2,4]  1
    z         findWorstP[3,1]  1
    z         findWorstP[3,2]  1
    z         findWorstP[3,4]  1
    z         findWorstP[4,1]  1
    z         findWorstP[4,2]  1
    z         findWorstP[4,3]  1
    cashProportion[1]  allocateAllCash  1
    cashProportion[1]  findWorstP[1,2]  1.2005090158227090e-01
    cashProportion[1]  findWorstP[1,3]  1.2005090158227090e-01
    cashProportion[1]  findWorstP[1,4]  1.2005090158227090e-01
    cashProportion[1]  findWorstP[2,1]  -1.5418060716323106e-01
    cashProportion[1]  findWorstP[3,1]  -1.7336430775631914e-01
    cashProportion[1]  findWorstP[4,1]  -1.3445920507717959e-01
    cashProportion[2]  allocateAllCash  1
    cashProportion[2]  findWorstP[1,2]  -1.2005090158227090e-01
    cashProportion[2]  findWorstP[2,1]  1.5418060716323106e-01
    cashProportion[2]  findWorstP[2,3]  1.5418060716323106e-01
    cashProportion[2]  findWorstP[2,4]  1.5418060716323106e-01
    cashProportion[2]  findWorstP[3,2]  -1.7336430775631914e-01
    cashProportion[2]  findWorstP[4,2]  -1.3445920507717959e-01
    cashProportion[3]  allocateAllCash  1
    cashProportion[3]  findWorstP[1,3]  -1.2005090158227090e-01
    cashProportion[3]  findWorstP[2,3]  -1.5418060716323106e-01
    cashProportion[3]  findWorstP[3,1]  1.7336430775631914e-01
    cashProportion[3]  findWorstP[3,2]  1.7336430775631914e-01
    cashProportion[3]  findWorstP[3,4]  1.7336430775631914e-01
    cashProportion[3]  findWorstP[4,3]  -1.3445920507717959e-01
    cashProportion[4]  allocateAllCash  1
    cashProportion[4]  findWorstP[1,4]  -1.2005090158227090e-01
    cashProportion[4]  findWorstP[2,4]  -1.5418060716323106e-01
    cashProportion[4]  findWorstP[3,4]  -1.7336430775631914e-01
    cashProportion[4]  findWorstP[4,1]  1.3445920507717959e-01
    cashProportion[4]  findWorstP[4,2]  1.3445920507717959e-01
    cashProportion[4]  findWorstP[4,3]  1.3445920507717959e-01
    MARKER    'MARKER'                 'INTORG'
    x[1,1]    allocateEach[1]  1
    x[1,1]    findWorstP[1,2]  1.0003841628850632e-01
    x[1,1]    findWorstP[1,3]  1.0003841628850632e-01
    x[1,1]    findWorstP[1,4]  1.0003841628850632e-01
    x[1,1]    findWorstP[2,1]  -3.1129064586256347e-02
    x[1,1]    findWorstP[3,1]  -2.7044832009985781e-02
    x[1,1]    findWorstP[4,1]  -1.2383692787608239e-01
    x[1,2]    allocateEach[2]  1
    x[1,2]    findWorstP[1,2]  5.3074503589521954e-02
    x[1,2]    findWorstP[1,3]  5.3074503589521954e-02
    x[1,2]    findWorstP[1,4]  5.3074503589521954e-02
    x[1,2]    findWorstP[2,1]  -1.1677639186543118e-01
    x[1,2]    findWorstP[3,1]  -5.7140875836482780e-02
    x[1,2]    findWorstP[4,1]  -1.2520841176786962e-01
    x[1,3]    allocateEach[3]  1
    x[1,3]    findWorstP[1,2]  1.0227136305793655e-01
    x[1,3]    findWorstP[1,3]  1.0227136305793655e-01
    x[1,3]    findWorstP[1,4]  1.0227136305793655e-01
    x[1,3]    findWorstP[2,1]  -8.0312678271327057e-02
    x[1,3]    findWorstP[3,1]  -3.5903748136333687e-02
    x[1,3]    findWorstP[4,1]  -0.0661135911364492
    x[1,4]    allocateEach[4]  1
    x[1,4]    findWorstP[1,2]  4.7612187567528629e-02
    x[1,4]    findWorstP[1,3]  4.7612187567528629e-02
    x[1,4]    findWorstP[1,4]  4.7612187567528629e-02
    x[1,4]    findWorstP[2,1]  -1.4724247984088562e-01
    x[1,4]    findWorstP[3,1]  -8.4757810062064412e-02
    x[1,4]    findWorstP[4,1]  -1.3267089764965309e-01
    x[1,5]    allocateEach[5]  1
    x[1,5]    findWorstP[1,2]  9.3219525078633333e-02
    x[1,5]    findWorstP[1,3]  9.3219525078633333e-02
    x[1,5]    findWorstP[1,4]  9.3219525078633333e-02
    x[1,5]    findWorstP[2,1]  -1.0496615735672768e-01
    x[1,5]    findWorstP[3,1]  -7.8256648521202454e-02
    x[1,5]    findWorstP[4,1]  -1.4575377830366264e-02
    x[1,6]    allocateEach[6]  1
    x[1,6]    findWorstP[1,2]  2.8608129847055151e-02
    x[1,6]    findWorstP[1,3]  2.8608129847055151e-02
    x[1,6]    findWorstP[1,4]  2.8608129847055151e-02
    x[1,6]    findWorstP[2,1]  -8.2825822168087718e-02
    x[1,6]    findWorstP[3,1]  -1.0608161991609166e-01
    x[1,6]    findWorstP[4,1]  -1.3351799064163930e-02
    x[1,7]    allocateEach[7]  1
    x[1,7]    findWorstP[1,2]  9.5320415856323074e-02
    x[1,7]    findWorstP[1,3]  9.5320415856323074e-02
    x[1,7]    findWorstP[1,4]  9.5320415856323074e-02
    x[1,7]    findWorstP[2,1]  -4.4789466380918616e-02
    x[1,7]    findWorstP[3,1]  -4.5421448632155609e-02
    x[1,7]    findWorstP[4,1]  -4.5393427634055822e-02
    x[1,8]    allocateEach[8]  1
    x[1,8]    findWorstP[1,2]  0.0487526711325602
    x[1,8]    findWorstP[1,3]  0.0487526711325602
    x[1,8]    findWorstP[1,4]  0.0487526711325602
    x[1,8]    findWorstP[2,1]  -1.2997425183860377e-02
    x[1,8]    findWorstP[3,1]  -5.1471862972851147e-02
    x[1,8]    findWorstP[4,1]  -7.4490399612757482e-02
    x[1,9]    allocateEach[9]  1
    x[1,9]    findWorstP[1,2]  1.0655718024442362e-01
    x[1,9]    findWorstP[1,3]  1.0655718024442362e-01
    x[1,9]    findWorstP[1,4]  1.0655718024442362e-01
    x[1,9]    findWorstP[2,1]  -1.8594181223885661e-02
    x[1,9]    findWorstP[3,1]  -3.4430151520404975e-02
    x[1,9]    findWorstP[4,1]  -9.5425697843274343e-02
    x[1,10]   allocateEach[10]  1
    x[1,10]   findWorstP[1,2]  3.0420898460947442e-02
    x[1,10]   findWorstP[1,3]  3.0420898460947442e-02
    x[1,10]   findWorstP[1,4]  3.0420898460947442e-02
    x[1,10]   findWorstP[2,1]  -8.3982176721811935e-02
    x[1,10]   findWorstP[3,1]  -1.7001837661662217e-01
    x[1,10]   findWorstP[4,1]  -5.4805571989458395e-02
    x[1,11]   allocateEach[11]  1
    x[1,11]   findWorstP[1,2]  7.4923767677495257e-02
    x[1,11]   findWorstP[1,3]  7.4923767677495257e-02
    x[1,11]   findWorstP[1,4]  7.4923767677495257e-02
    x[1,11]   findWorstP[2,1]  -1.0528993663177047e-01
    x[1,11]   findWorstP[3,1]  -4.3635796262265519e-02
    x[1,11]   findWorstP[4,1]  -0.0043430323239929
    x[1,12]   allocateEach[12]  1
    x[1,12]   findWorstP[1,2]  9.9150039616797511e-02
    x[1,12]   findWorstP[1,3]  9.9150039616797511e-02
    x[1,12]   findWorstP[1,4]  9.9150039616797511e-02
    x[1,12]   findWorstP[2,1]  -1.6913612605806445e-02
    x[1,12]   findWorstP[3,1]  -9.2472521757220608e-02
    x[1,12]   findWorstP[4,1]  -1.1532566019469692e-01
    x[2,1]    allocateEach[1]  1
    x[2,1]    findWorstP[1,2]  -1.0003841628850632e-01
    x[2,1]    findWorstP[2,1]  3.1129064586256347e-02
    x[2,1]    findWorstP[2,3]  3.1129064586256347e-02
    x[2,1]    findWorstP[2,4]  3.1129064586256347e-02
    x[2,1]    findWorstP[3,2]  -2.7044832009985781e-02
    x[2,1]    findWorstP[4,2]  -1.2383692787608239e-01
    x[2,2]    allocateEach[2]  1
    x[2,2]    findWorstP[1,2]  -5.3074503589521954e-02
    x[2,2]    findWorstP[2,1]  1.1677639186543118e-01
    x[2,2]    findWorstP[2,3]  1.1677639186543118e-01
    x[2,2]    findWorstP[2,4]  1.1677639186543118e-01
    x[2,2]    findWorstP[3,2]  -5.7140875836482780e-02
    x[2,2]    findWorstP[4,2]  -1.2520841176786962e-01
    x[2,3]    allocateEach[3]  1
    x[2,3]    findWorstP[1,2]  -1.0227136305793655e-01
    x[2,3]    findWorstP[2,1]  8.0312678271327057e-02
    x[2,3]    findWorstP[2,3]  8.0312678271327057e-02
    x[2,3]    findWorstP[2,4]  8.0312678271327057e-02
    x[2,3]    findWorstP[3,2]  -3.5903748136333687e-02
    x[2,3]    findWorstP[4,2]  -0.0661135911364492
    x[2,4]    allocateEach[4]  1
    x[2,4]    findWorstP[1,2]  -4.7612187567528629e-02
    x[2,4]    findWorstP[2,1]  1.4724247984088562e-01
    x[2,4]    findWorstP[2,3]  1.4724247984088562e-01
    x[2,4]    findWorstP[2,4]  1.4724247984088562e-01
    x[2,4]    findWorstP[3,2]  -8.4757810062064412e-02
    x[2,4]    findWorstP[4,2]  -1.3267089764965309e-01
    x[2,5]    allocateEach[5]  1
    x[2,5]    findWorstP[1,2]  -9.3219525078633333e-02
    x[2,5]    findWorstP[2,1]  1.0496615735672768e-01
    x[2,5]    findWorstP[2,3]  1.0496615735672768e-01
    x[2,5]    findWorstP[2,4]  1.0496615735672768e-01
    x[2,5]    findWorstP[3,2]  -7.8256648521202454e-02
    x[2,5]    findWorstP[4,2]  -1.4575377830366264e-02
    x[2,6]    allocateEach[6]  1
    x[2,6]    findWorstP[1,2]  -2.8608129847055151e-02
    x[2,6]    findWorstP[2,1]  8.2825822168087718e-02
    x[2,6]    findWorstP[2,3]  8.2825822168087718e-02
    x[2,6]    findWorstP[2,4]  8.2825822168087718e-02
    x[2,6]    findWorstP[3,2]  -1.0608161991609166e-01
    x[2,6]    findWorstP[4,2]  -1.3351799064163930e-02
    x[2,7]    allocateEach[7]  1
    x[2,7]    findWorstP[1,2]  -9.5320415856323074e-02
    x[2,7]    findWorstP[2,1]  4.4789466380918616e-02
    x[2,7]    findWorstP[2,3]  4.4789466380918616e-02
    x[2,7]    findWorstP[2,4]  4.4789466380918616e-02
    x[2,7]    findWorstP[3,2]  -4.5421448632155609e-02
    x[2,7]    findWorstP[4,2]  -4.5393427634055822e-02
    x[2,8]    allocateEach[8]  1
    x[2,8]    findWorstP[1,2]  -0.0487526711325602
    x[2,8]    findWorstP[2,1]  1.2997425183860377e-02
    x[2,8]    findWorstP[2,3]  1.2997425183860377e-02
    x[2,8]    findWorstP[2,4]  1.2997425183860377e-02
    x[2,8]    findWorstP[3,2]  -5.1471862972851147e-02
    x[2,8]    findWorstP[4,2]  -7.4490399612757482e-02
    x[2,9]    allocateEach[9]  1
    x[2,9]    findWorstP[1,2]  -1.0655718024442362e-01
    x[2,9]    findWorstP[2,1]  1.8594181223885661e-02
    x[2,9]    findWorstP[2,3]  1.8594181223885661e-02
    x[2,9]    findWorstP[2,4]  1.8594181223885661e-02
    x[2,9]    findWorstP[3,2]  -3.4430151520404975e-02
    x[2,9]    findWorstP[4,2]  -9.5425697843274343e-02
    x[2,10]   allocateEach[10]  1
    x[2,10]   findWorstP[1,2]  -3.0420898460947442e-02
    x[2,10]   findWorstP[2,1]  8.3982176721811935e-02
    x[2,10]   findWorstP[2,3]  8.3982176721811935e-02
    x[2,10]   findWorstP[2,4]  8.3982176721811935e-02
    x[2,10]   findWorstP[3,2]  -1.7001837661662217e-01
    x[2,10]   findWorstP[4,2]  -5.4805571989458395e-02
    x[2,11]   allocateEach[11]  1
    x[2,11]   findWorstP[1,2]  -7.4923767677495257e-02
    x[2,11]   findWorstP[2,1]  1.0528993663177047e-01
    x[2,11]   findWorstP[2,3]  1.0528993663177047e-01
    x[2,11]   findWorstP[2,4]  1.0528993663177047e-01
    x[2,11]   findWorstP[3,2]  -4.3635796262265519e-02
    x[2,11]   findWorstP[4,2]  -0.0043430323239929
    x[2,12]   allocateEach[12]  1
    x[2,12]   findWorstP[1,2]  -9.9150039616797511e-02
    x[2,12]   findWorstP[2,1]  1.6913612605806445e-02
    x[2,12]   findWorstP[2,3]  1.6913612605806445e-02
    x[2,12]   findWorstP[2,4]  1.6913612605806445e-02
    x[2,12]   findWorstP[3,2]  -9.2472521757220608e-02
    x[2,12]   findWorstP[4,2]  -1.1532566019469692e-01
    x[3,1]    allocateEach[1]  1
    x[3,1]    findWorstP[1,3]  -1.0003841628850632e-01
    x[3,1]    findWorstP[2,3]  -3.1129064586256347e-02
    x[3,1]    findWorstP[3,1]  2.7044832009985781e-02
    x[3,1]    findWorstP[3,2]  2.7044832009985781e-02
    x[3,1]    findWorstP[3,4]  2.7044832009985781e-02
    x[3,1]    findWorstP[4,3]  -1.2383692787608239e-01
    x[3,2]    allocateEach[2]  1
    x[3,2]    findWorstP[1,3]  -5.3074503589521954e-02
    x[3,2]    findWorstP[2,3]  -1.1677639186543118e-01
    x[3,2]    findWorstP[3,1]  5.7140875836482780e-02
    x[3,2]    findWorstP[3,2]  5.7140875836482780e-02
    x[3,2]    findWorstP[3,4]  5.7140875836482780e-02
    x[3,2]    findWorstP[4,3]  -1.2520841176786962e-01
    x[3,3]    allocateEach[3]  1
    x[3,3]    findWorstP[1,3]  -1.0227136305793655e-01
    x[3,3]    findWorstP[2,3]  -8.0312678271327057e-02
    x[3,3]    findWorstP[3,1]  3.5903748136333687e-02
    x[3,3]    findWorstP[3,2]  3.5903748136333687e-02
    x[3,3]    findWorstP[3,4]  3.5903748136333687e-02
    x[3,3]    findWorstP[4,3]  -0.0661135911364492
    x[3,4]    allocateEach[4]  1
    x[3,4]    findWorstP[1,3]  -4.7612187567528629e-02
    x[3,4]    findWorstP[2,3]  -1.4724247984088562e-01
    x[3,4]    findWorstP[3,1]  8.4757810062064412e-02
    x[3,4]    findWorstP[3,2]  8.4757810062064412e-02
    x[3,4]    findWorstP[3,4]  8.4757810062064412e-02
    x[3,4]    findWorstP[4,3]  -1.3267089764965309e-01
    x[3,5]    allocateEach[5]  1
    x[3,5]    findWorstP[1,3]  -9.3219525078633333e-02
    x[3,5]    findWorstP[2,3]  -1.0496615735672768e-01
    x[3,5]    findWorstP[3,1]  7.8256648521202454e-02
    x[3,5]    findWorstP[3,2]  7.8256648521202454e-02
    x[3,5]    findWorstP[3,4]  7.8256648521202454e-02
    x[3,5]    findWorstP[4,3]  -1.4575377830366264e-02
    x[3,6]    allocateEach[6]  1
    x[3,6]    findWorstP[1,3]  -2.8608129847055151e-02
    x[3,6]    findWorstP[2,3]  -8.2825822168087718e-02
    x[3,6]    findWorstP[3,1]  1.0608161991609166e-01
    x[3,6]    findWorstP[3,2]  1.0608161991609166e-01
    x[3,6]    findWorstP[3,4]  1.0608161991609166e-01
    x[3,6]    findWorstP[4,3]  -1.3351799064163930e-02
    x[3,7]    allocateEach[7]  1
    x[3,7]    findWorstP[1,3]  -9.5320415856323074e-02
    x[3,7]    findWorstP[2,3]  -4.4789466380918616e-02
    x[3,7]    findWorstP[3,1]  4.5421448632155609e-02
    x[3,7]    findWorstP[3,2]  4.5421448632155609e-02
    x[3,7]    findWorstP[3,4]  4.5421448632155609e-02
    x[3,7]    findWorstP[4,3]  -4.5393427634055822e-02
    x[3,8]    allocateEach[8]  1
    x[3,8]    findWorstP[1,3]  -0.0487526711325602
    x[3,8]    findWorstP[2,3]  -1.2997425183860377e-02
    x[3,8]    findWorstP[3,1]  5.1471862972851147e-02
    x[3,8]    findWorstP[3,2]  5.1471862972851147e-02
    x[3,8]    findWorstP[3,4]  5.1471862972851147e-02
    x[3,8]    findWorstP[4,3]  -7.4490399612757482e-02
    x[3,9]    allocateEach[9]  1
    x[3,9]    findWorstP[1,3]  -1.0655718024442362e-01
    x[3,9]    findWorstP[2,3]  -1.8594181223885661e-02
    x[3,9]    findWorstP[3,1]  3.4430151520404975e-02
    x[3,9]    findWorstP[3,2]  3.4430151520404975e-02
    x[3,9]    findWorstP[3,4]  3.4430151520404975e-02
    x[3,9]    findWorstP[4,3]  -9.5425697843274343e-02
    x[3,10]   allocateEach[10]  1
    x[3,10]   findWorstP[1,3]  -3.0420898460947442e-02
    x[3,10]   findWorstP[2,3]  -8.3982176721811935e-02
    x[3,10]   findWorstP[3,1]  1.7001837661662217e-01
    x[3,10]   findWorstP[3,2]  1.7001837661662217e-01
    x[3,10]   findWorstP[3,4]  1.7001837661662217e-01
    x[3,10]   findWorstP[4,3]  -5.4805571989458395e-02
    x[3,11]   allocateEach[11]  1
    x[3,11]   findWorstP[1,3]  -7.4923767677495257e-02
    x[3,11]   findWorstP[2,3]  -1.0528993663177047e-01
    x[3,11]   findWorstP[3,1]  4.3635796262265519e-02
    x[3,11]   findWorstP[3,2]  4.3635796262265519e-02
    x[3,11]   findWorstP[3,4]  4.3635796262265519e-02
    x[3,11]   findWorstP[4,3]  -0.0043430323239929
    x[3,12]   allocateEach[12]  1
    x[3,12]   findWorstP[1,3]  -9.9150039616797511e-02
    x[3,12]   findWorstP[2,3]  -1.6913612605806445e-02
    x[3,12]   findWorstP[3,1]  9.2472521757220608e-02
    x[3,12]   findWorstP[3,2]  9.2472521757220608e-02
    x[3,12]   findWorstP[3,4]  9.2472521757220608e-02
    x[3,12]   findWorstP[4,3]  -1.1532566019469692e-01
    x[4,1]    allocateEach[1]  1
    x[4,1]    findWorstP[1,4]  -1.0003841628850632e-01
    x[4,1]    findWorstP[2,4]  -3.1129064586256347e-02
    x[4,1]    findWorstP[3,4]  -2.7044832009985781e-02
    x[4,1]    findWorstP[4,1]  1.2383692787608239e-01
    x[4,1]    findWorstP[4,2]  1.2383692787608239e-01
    x[4,1]    findWorstP[4,3]  1.2383692787608239e-01
    x[4,2]    allocateEach[2]  1
    x[4,2]    findWorstP[1,4]  -5.3074503589521954e-02
    x[4,2]    findWorstP[2,4]  -1.1677639186543118e-01
    x[4,2]    findWorstP[3,4]  -5.7140875836482780e-02
    x[4,2]    findWorstP[4,1]  1.2520841176786962e-01
    x[4,2]    findWorstP[4,2]  1.2520841176786962e-01
    x[4,2]    findWorstP[4,3]  1.2520841176786962e-01
    x[4,3]    allocateEach[3]  1
    x[4,3]    findWorstP[1,4]  -1.0227136305793655e-01
    x[4,3]    findWorstP[2,4]  -8.0312678271327057e-02
    x[4,3]    findWorstP[3,4]  -3.5903748136333687e-02
    x[4,3]    findWorstP[4,1]  0.0661135911364492
    x[4,3]    findWorstP[4,2]  0.0661135911364492
    x[4,3]    findWorstP[4,3]  0.0661135911364492
    x[4,4]    allocateEach[4]  1
    x[4,4]    findWorstP[1,4]  -4.7612187567528629e-02
    x[4,4]    findWorstP[2,4]  -1.4724247984088562e-01
    x[4,4]    findWorstP[3,4]  -8.4757810062064412e-02
    x[4,4]    findWorstP[4,1]  1.3267089764965309e-01
    x[4,4]    findWorstP[4,2]  1.3267089764965309e-01
    x[4,4]    findWorstP[4,3]  1.3267089764965309e-01
    x[4,5]    allocateEach[5]  1
    x[4,5]    findWorstP[1,4]  -9.3219525078633333e-02
    x[4,5]    findWorstP[2,4]  -1.0496615735672768e-01
    x[4,5]    findWorstP[3,4]  -7.8256648521202454e-02
    x[4,5]    findWorstP[4,1]  1.4575377830366264e-02
    x[4,5]    findWorstP[4,2]  1.4575377830366264e-02
    x[4,5]    findWorstP[4,3]  1.4575377830366264e-02
    x[4,6]    allocateEach[6]  1
    x[4,6]    findWorstP[1,4]  -2.8608129847055151e-02
    x[4,6]    findWorstP[2,4]  -8.2825822168087718e-02
    x[4,6]    findWorstP[3,4]  -1.0608161991609166e-01
    x[4,6]    findWorstP[4,1]  1.3351799064163930e-02
    x[4,6]    findWorstP[4,2]  1.3351799064163930e-02
    x[4,6]    findWorstP[4,3]  1.3351799064163930e-02
    x[4,7]    allocateEach[7]  1
    x[4,7]    findWorstP[1,4]  -9.5320415856323074e-02
    x[4,7]    findWorstP[2,4]  -4.4789466380918616e-02
    x[4,7]    findWorstP[3,4]  -4.5421448632155609e-02
    x[4,7]    findWorstP[4,1]  4.5393427634055822e-02
    x[4,7]    findWorstP[4,2]  4.5393427634055822e-02
    x[4,7]    findWorstP[4,3]  4.5393427634055822e-02
    x[4,8]    allocateEach[8]  1
    x[4,8]    findWorstP[1,4]  -0.0487526711325602
    x[4,8]    findWorstP[2,4]  -1.2997425183860377e-02
    x[4,8]    findWorstP[3,4]  -5.1471862972851147e-02
    x[4,8]    findWorstP[4,1]  7.4490399612757482e-02
    x[4,8]    findWorstP[4,2]  7.4490399612757482e-02
    x[4,8]    findWorstP[4,3]  7.4490399612757482e-02
    x[4,9]    allocateEach[9]  1
    x[4,9]    findWorstP[1,4]  -1.0655718024442362e-01
    x[4,9]    findWorstP[2,4]  -1.8594181223885661e-02
    x[4,9]    findWorstP[3,4]  -3.4430151520404975e-02
    x[4,9]    findWorstP[4,1]  9.5425697843274343e-02
    x[4,9]    findWorstP[4,2]  9.5425697843274343e-02
    x[4,9]    findWorstP[4,3]  9.5425697843274343e-02
    x[4,10]   allocateEach[10]  1
    x[4,10]   findWorstP[1,4]  -3.0420898460947442e-02
    x[4,10]   findWorstP[2,4]  -8.3982176721811935e-02
    x[4,10]   findWorstP[3,4]  -1.7001837661662217e-01
    x[4,10]   findWorstP[4,1]  5.4805571989458395e-02
    x[4,10]   findWorstP[4,2]  5.4805571989458395e-02
    x[4,10]   findWorstP[4,3]  5.4805571989458395e-02
    x[4,11]   allocateEach[11]  1
    x[4,11]   findWorstP[1,4]  -7.4923767677495257e-02
    x[4,11]   findWorstP[2,4]  -1.0528993663177047e-01
    x[4,11]   findWorstP[3,4]  -4.3635796262265519e-02
    x[4,11]   findWorstP[4,1]  0.0043430323239929
    x[4,11]   findWorstP[4,2]  0.0043430323239929
    x[4,11]   findWorstP[4,3]  0.0043430323239929
    x[4,12]   allocateEach[12]  1
    x[4,12]   findWorstP[1,4]  -9.9150039616797511e-02
    x[4,12]   findWorstP[2,4]  -1.6913612605806445e-02
    x[4,12]   findWorstP[3,4]  -9.2472521757220608e-02
    x[4,12]   findWorstP[4,1]  1.1532566019469692e-01
    x[4,12]   findWorstP[4,2]  1.1532566019469692e-01
    x[4,12]   findWorstP[4,3]  1.1532566019469692e-01
    MARKER    'MARKER'                 'INTEND'
RHS
    RHS1      allocateEach[1]  1
    RHS1      allocateEach[2]  1
    RHS1      allocateEach[3]  1
    RHS1      allocateEach[4]  1
    RHS1      allocateEach[5]  1
    RHS1      allocateEach[6]  1
    RHS1      allocateEach[7]  1
    RHS1      allocateEach[8]  1
    RHS1      allocateEach[9]  1
    RHS1      allocateEach[10]  1
    RHS1      allocateEach[11]  1
    RHS1      allocateEach[12]  1
    RHS1      allocateAllCash  1
BOUNDS
 UP BND1      z         1
 MI BND1      cashProportion[1]
 UP BND1      cashProportion[1]  1
 MI BND1      cashProportion[2]
 UP BND1      cashProportion[2]  1
 MI BND1      cashProportion[3]
 UP BND1      cashProportion[3]  1
 MI BND1      cashProportion[4]
 UP BND1      cashProportion[4]  1
 BV BND1      x[1,1]  
 BV BND1      x[1,2]  
 BV BND1      x[1,3]  
 BV BND1      x[1,4]  
 BV BND1      x[1,5]  
 BV BND1      x[1,6]  
 BV BND1      x[1,7]  
 BV BND1      x[1,8]  
 BV BND1      x[1,9]  
 BV BND1      x[1,10] 
 BV BND1      x[1,11] 
 BV BND1      x[1,12] 
 BV BND1      x[2,1]  
 BV BND1      x[2,2]  
 BV BND1      x[2,3]  
 BV BND1      x[2,4]  
 BV BND1      x[2,5]  
 BV BND1      x[2,6]  
 BV BND1      x[2,7]  
 BV BND1      x[2,8]  
 BV BND1      x[2,9]  
 BV BND1      x[2,10] 
 BV BND1      x[2,11] 
 BV BND1      x[2,12] 
 BV BND1      x[3,1]  
 BV BND1      x[3,2]  
 BV BND1      x[3,3]  
 BV BND1      x[3,4]  
 BV BND1      x[3,5]  
 BV BND1      x[3,6]  
 BV BND1      x[3,7]  
 BV BND1      x[3,8]  
 BV BND1      x[3,9]  
 BV BND1      x[3,10] 
 BV BND1      x[3,11] 
 BV BND1      x[3,12] 
 BV BND1      x[4,1]  
 BV BND1      x[4,2]  
 BV BND1      x[4,3]  
 BV BND1      x[4,4]  
 BV BND1      x[4,5]  
 BV BND1      x[4,6]  
 BV BND1      x[4,7]  
 BV BND1      x[4,8]  
 BV BND1      x[4,9]  
 BV BND1      x[4,10] 
 BV BND1      x[4,11] 
 BV BND1      x[4,12] 
ENDATA
